
  19    0


   0  12 2 3 4 5 11 12 13 14 15 16 17 18 
   2   3 9 8 6 
   9   3 10 9 8 
   6   2 9 6 
  10   2 8 7 
   3   1 7 
   9   1 19
   3   1 19
   8   1 19
   3   1 19
   2   1 19
   6   1 19
   9   1 19
   4   1 19
   8   1 19
   8   1 19
   5   1 19
   1   1 19
   0   0 
